NAME: concorde91
TYPE: TSP
DIMENSION: 15 
EDGE_WEIGHT_TYPE: EUC_2D
NODE_COORD_SECTION
1 31 67
2 26 20
3 55 36
4 5 36
5 47 69
6 48 54
7 82 71
8 37 54
9 55 75
10 17 42
11 63 17
12 89 77
13 28 89
14 40 55
15 77 28
